50, 586
9, 14
21, 26
46, 51
8, 13
28, 33
9, 14
25, 30
39, 44
20, 25
26, 31
43, 48
46, 51
30, 35
2, 7
39, 44
43, 48
20, 25
34, 39
15, 20
3, 8
9, 14
36, 41
11, 16
37, 42
26, 31
1, 6
5, 10
50, 55
17, 22
43, 48
4, 9
10, 15
2, 7
2, 7
49, 54
6, 11
9, 14
47, 52
40, 45
39, 44
21, 26
33, 38
45, 50
10, 15
11, 16
40, 45
22, 27
5, 10
14, 19
22, 27
